Route #1: 22 92 102 90 26 52 33
Route #2: 24 104 1 12 101 103 53 76
Route #3: 44 15 60 51 100 45 96
Route #4: 5 87 43 28 93 97 66
Route #5: 46 79 37 27 19 56 25
Route #6: 71 49 67 77 85 21 99
Route #7: 83 2 48 8 36 91 88 86
Route #8: 18 41 10 16 20 35 59 95
Route #9: 68 47 38 30 42 89 73
Route #10: 55 3 23 98 4 65 80 39 61
Route #11: 50 81 6 70 32 58 14
Route #12: 54 13 40 31 17 69 105 64 94 63
Route #13: 82 57 11 74 34 72 29
Route #14: 62 78 7 75 84 9
Cost 27518
